14 27
1 2 0
1 3 0
1 4 1
1 5 0
1 6 0
1 7 0
1 8 0
1 9 0
1 10 0
1 11 0
1 12 1
1 13 0
1 14 0
2 3 1
2 4 1
2 5 0
2 6 0
2 7 0
2 8 0
2 9 1
2 10 0
2 11 0
2 12 0
2 13 0
2 14 1
3 4 0
3 5 0
3 6 0
3 7 0
3 8 1
3 9 1
3 10 0
3 11 0
3 12 0
3 13 0
3 14 0
4 5 0
4 6 0
4 7 0
4 8 1
4 9 1
4 10 1
4 11 1
4 12 1
4 13 0
4 14 0
5 6 0
5 7 1
5 8 0
5 9 1
5 10 0
5 11 0
5 12 0
5 13 0
5 14 0
6 7 0
6 8 0
6 9 1
6 10 0
6 11 0
6 12 0
6 13 0
6 14 1
7 8 0
7 9 1
7 10 1
7 11 0
7 12 1
7 13 1
7 14 0
8 9 1
8 10 0
8 11 0
8 12 0
8 13 1
8 14 0
9 10 0
9 11 0
9 12 0
9 13 0
9 14 0
10 11 0
10 12 0
10 13 1
10 14 1
11 12 0
11 13 0
11 14 0
12 13 1
12 14 1
13 14 0
